50
100
100
100
96
95
95
92
92
92
91
90
90
89
89
86
84
83
81
78
76
73
73
73
71
71
67
66
61
60
59
57
54
54
44
42
42
38
36
33
31
31
28
28
27
27
27
27
26
25
21
20
